(declare-fun i_1_ () Int)
(declare-fun c_1_Global_M () (Array Int Int))
(declare-fun c_2_Global_M () (Array Int Int))
(declare-fun i_2_ () Int)
(declare-fun c_3_Global_M () (Array Int Int))
(declare-fun c_4_Global_M () (Array Int Int))
(declare-fun c_5_Global_M () (Array Int Int))
(declare-fun i_3_ret_val () Int)
(assert true)
(assert (= c_2_Global_M (store c_1_Global_M 0 i_1_)))
(assert (= c_3_Global_M (store c_2_Global_M 1 i_2_)))
(assert (= c_4_Global_M
   (store c_3_Global_M 2 (+ (select c_3_Global_M 0) (select c_3_Global_M 1)))))
(assert (= c_5_Global_M (store c_4_Global_M 3 (select c_4_Global_M 2))))
(assert (= i_3_ret_val (select c_5_Global_M 3)))
(assert (not (or (not true) (= (select c_5_Global_M 3) (select c_5_Global_M 0)))))
(check-sat)
